1189.78 0
0 66 71 17 130 84 85 86 87 89 90 5 3 24 22 30 0
0 91 59 29 2 44 43 42 41 57 50 95 37 97 105 76 58 31 26 20 82 0
0 73 74 96 99 51 52 45 16 53 102 28 112 129 63 35 40 36 32 98 93 94 124 19 39 38 56 100 104 103 78 55 54 62 49 133 79 64 47 0
0 72 75 1 48 60 134 81 77 23 61 33 113 117 127 126 69 68 70 0
0 21 25 27 92 13 12 9 4 6 7 8 11 14 15 88 83 65 109 115 106 107 108 34 0
0 18 128 116 131 114 120 121 0
0 46 118 132 101 10 125 111 67 123 122 110 80 119 0